NAME          ClpDefau
ROWS
 N  OBJROW
 L  R_64_0
 L  R_64_1
 L  R_64_2
 L  R_64_3
 L  R_64_4
 L  R_64_5
 L  R_64_6
 L  R_64_7
COLUMNS
    x_0       OBJROW     -1.           R_64_1    3.          
    x_1       OBJROW     -2.        
    x_2       OBJROW     -2.           R_64_1    3.          
    x_2       R_64_3    6.             R_64_4    9.          
    x_3       OBJROW     -6.           R_64_0    8.          
    x_4       OBJROW     -3.           R_64_1    7.          
    x_5       OBJROW     -5.        
    x_6       OBJROW     -5.           R_64_4    10.         
    x_7       OBJROW     -10.       
RHS
    RHS       R_64_0    10.            R_64_1    7.          
    RHS       R_64_2    3.             R_64_3    7.          
    RHS       R_64_4    2.             R_64_5    5.          
    RHS       R_64_6    3.             R_64_7    2.          
BOUNDS
 UI BOUND     x_0       10.         
 UI BOUND     x_1       10.         
 UI BOUND     x_2       10.         
 UI BOUND     x_3       10.         
 UI BOUND     x_4       10.         
 UI BOUND     x_5       10.         
 UI BOUND     x_6       10.         
 UI BOUND     x_7       10.         
ENDATA
